Gurobi Optimizer version 9.1.2 build v9.1.2rc0 (linux64)
Thread count: 36 physical cores, 72 logical processors, using up to 32 threads
Optimize a model with 12 rows, 57 columns and 590 nonzeros
Model fingerprint: 0xf32eec78
Model has 47 quadratic constraints
Coefficient statistics:
  Matrix range     [2e-05, 3e+00]
  QMatrix range    [1e+00, 1e+00]
  QLMatrix range   [1e+00, 1e+00]
  Objective range  [8e-03, 7e-01]
  Bounds range     [1e+00, 1e+00]
  RHS range        [1e+00, 1e+00]
Presolve removed 9 rows and 0 columns

Continuous model is non-convex -- solving as a MIP.

Presolve removed 9 rows and 0 columns
Presolve time: 0.00s
Presolved: 189 rows, 57 columns, 443 nonzeros
Presolved model has 47 bilinear constraint(s)
Variable types: 57 continuous, 0 integer (0 binary)

Root relaxation: objective -1.743721e+00, 44 iterations, 0.00 seconds

    Nodes    |    Current Node    |     Objective Bounds      |     Work
 Expl Unexpl |  Obj  Depth IntInf | Incumbent    BestBd   Gap | It/Node Time

     0     0   -1.74372    0   38          -   -1.74372      -     -    0s
H    0     0                       0.6147548   -1.74372   384%     -    0s
     0     0   -1.64739    0    1    0.61475   -1.64739   368%     -    0s
H    0     0                      -1.6450460   -1.64739  0.14%     -    0s
     0     0     cutoff    0        -1.64505   -1.64505  0.00%     -    0s

Cutting planes:
  RLT: 25
  BQP: 3

Explored 1 nodes (76 simplex iterations) in 0.01 seconds
Thread count was 32 (of 72 available processors)

Solution count 2: -1.64505 0.614755 
No other solutions better than -1.64505

Optimal solution found (tolerance 1.00e-04)
Best objective -1.645045978473e+00, best bound -1.645045978473e+00, gap 0.0000%

User-callback calls 77, time in user-callback 0.00 sec
Gurobi Optimizer version 9.1.2 build v9.1.2rc0 (linux64)
Thread count: 36 physical cores, 72 logical processors, using up to 32 threads
Optimize a model with 24 rows, 125 columns and 2580 nonzeros
Model fingerprint: 0x3e34aa30
Model has 105 quadratic constraints
Coefficient statistics:
  Matrix range     [6e-06, 5e+01]
  QMatrix range    [1e+00, 1e+00]
  QLMatrix range   [1e+00, 1e+00]
  Objective range  [1e-02, 1e+00]
  Bounds range     [1e+00, 1e+00]
  RHS range        [1e+00, 1e+00]
Presolve removed 10 rows and 0 columns

Continuous model is non-convex -- solving as a MIP.

Presolve removed 10 rows and 0 columns
Presolve time: 0.00s
Presolved: 429 rows, 125 columns, 2142 nonzeros
Presolved model has 105 bilinear constraint(s)
Variable types: 125 continuous, 0 integer (0 binary)

Root relaxation: objective -5.175136e+00, 128 iterations, 0.00 seconds

    Nodes    |    Current Node    |     Objective Bounds      |     Work
 Expl Unexpl |  Obj  Depth IntInf | Incumbent    BestBd   Gap | It/Node Time

     0     0   -5.17514    0   95          -   -5.17514      -     -    0s
H    0     0                      -1.3588193   -5.17514   281%     -    0s
     0     0   -4.46233    0   72   -1.35882   -4.46233   228%     -    0s
H    0     0                      -2.3219343   -4.46233  92.2%     -    0s
     0     0   -4.45780    0   61   -2.32193   -4.45780  92.0%     -    0s
     0     0   -4.38233    0   66   -2.32193   -4.38233  88.7%     -    0s
H    0     0                      -3.0900113   -4.38233  41.8%     -    0s
     0     0   -4.36281    0   55   -3.09001   -4.36281  41.2%     -    0s
     0     0   -4.34604    0   55   -3.09001   -4.34604  40.6%     -    0s
     0     0   -4.34077    0   61   -3.09001   -4.34077  40.5%     -    0s
     0     0   -4.32847    0   55   -3.09001   -4.32847  40.1%     -    0s
     0     0   -4.32767    0   72   -3.09001   -4.32767  40.1%     -    0s
     0     0   -4.32057    0   77   -3.09001   -4.32057  39.8%     -    0s
     0     0   -4.31981    0   83   -3.09001   -4.31981  39.8%     -    0s
     0     0   -4.31807    0   82   -3.09001   -4.31807  39.7%     -    0s
     0     0   -4.31807    0   82   -3.09001   -4.31807  39.7%     -    0s
     0     0   -4.31792    0   83   -3.09001   -4.31792  39.7%     -    0s
H    0     0                      -3.5330147   -4.31792  22.2%     -    0s
H    0     0                      -3.5767081   -4.31792  20.7%     -    0s
H    0     0                      -3.5901533   -4.31792  20.3%     -    0s
     0     2   -4.31792    0   83   -3.59015   -4.31792  20.3%     -    0s
*  499   343              17      -3.6243237   -4.05953  12.0%  29.4    0s
*  894   576              24      -3.6400753   -3.99820  9.84%  22.7    0s
*  949   576              17      -3.6595600   -3.99820  9.25%  22.1    0s
* 1152   593              19      -3.6634017   -3.97812  8.59%  20.4    0s
* 1154   593              18      -3.6634201   -3.97812  8.59%  20.4    0s
* 1155   593              19      -3.6634366   -3.97812  8.59%  20.4    0s
* 1219   593              21      -3.6787255   -3.97812  8.14%  20.1    0s
* 1564   731              23      -3.7105466   -3.97812  7.21%  18.9    0s
* 1565   731              23      -3.7105467   -3.97812  7.21%  18.9    0s
* 2037   675              20      -3.7107516   -3.91648  5.54%  17.0    0s
* 2038   675              20      -3.7107520   -3.91648  5.54%  17.0    0s
* 2074   675              18      -3.7159939   -3.91648  5.40%  16.8    0s
* 2131   675              17      -3.7220032   -3.91648  5.23%  16.5    0s
* 2132   675              18      -3.7220041   -3.91648  5.23%  16.5    0s
* 2244   358              17      -3.7220375   -3.87264  4.05%  16.1    0s
* 2356   358              19      -3.7221909   -3.79234  1.88%  15.8    0s
* 2434   358              18      -3.7222563   -3.79234  1.88%  15.4    0s
* 2439   358              20      -3.7223323   -3.79234  1.88%  15.4    0s
* 2465   358              23      -3.7240520   -3.79234  1.83%  15.3    0s
* 2466   358              23      -3.7240528   -3.79234  1.83%  15.3    0s
* 2752   187              16      -3.7241629   -3.77674  1.41%  14.1    0s
* 2768   187              25      -3.7264414   -3.77674  1.35%  14.1    0s
* 3111    44              22      -3.7286213   -3.75547  0.72%  12.8    0s
* 3112    44              22      -3.7286214   -3.75547  0.72%  12.8    0s
* 3115    44              23      -3.7287489   -3.75547  0.72%  12.8    0s
* 3322    95              24      -3.7287538   -3.74948  0.56%  12.2    0s
* 3362    95              24      -3.7294239   -3.74948  0.54%  12.2    0s
* 3363    95              24      -3.7294242   -3.74948  0.54%  12.2    0s
* 3385    95              24      -3.7297535   -3.74948  0.53%  12.1    0s
* 3386    95              24      -3.7297536   -3.74948  0.53%  12.1    0s
* 3407    95              23      -3.7304482   -3.74948  0.51%  12.1    0s
* 3408    95              23      -3.7304636   -3.74948  0.51%  12.1    0s
* 3409    95              22      -3.7305950   -3.74948  0.51%  12.1    0s
* 3413    95              24      -3.7308093   -3.74948  0.50%  12.0    0s
* 3428    95              28      -3.7312319   -3.74948  0.49%  12.0    0s
* 3586   231              34      -3.7313125   -3.74415  0.34%  11.6    0s
* 3610   231              24      -3.7322700   -3.74053  0.22%  11.6    0s
* 3631   231              18      -3.7322921   -3.74021  0.21%  11.6    0s
* 3639   231              20      -3.7329591   -3.74021  0.19%  11.6    0s
* 3687   231              29      -3.7330675   -3.74021  0.19%  11.5    0s
* 3706   231              23      -3.7331474   -3.74021  0.19%  11.4    0s
* 3710   231              23      -3.7331544   -3.74021  0.19%  11.4    0s
* 3993    44              21      -3.7331830   -3.73360  0.01%  10.8    0s
* 4068    44              24      -3.7331879   -3.73328  0.00%  10.7    0s

Cutting planes:
  RLT: 57
  BQP: 10
  PSD: 26

Explored 4238 nodes (43858 simplex iterations) in 0.88 seconds
Thread count was 32 (of 72 available processors)

Solution count 10: -3.73319 -3.73318 -3.73315 ... -3.73123

Optimal solution found (tolerance 1.00e-04)
Best objective -3.733187861767e+00, best bound -3.733250203718e+00, gap 0.0017%

User-callback calls 8862, time in user-callback 0.00 sec



objective value: -3.733187861766635
objective bound: -3.733250203718039
x_opt: [0.0, 0.0, 1.0, 0.025424809629036205, 1.0, 0.6649334560596444, 1.0, 1.0, 1.0, 0.0, 0.0, 0.21674380115357678, 0.007750194885340372, 0.0, 0.0, 0.4994695366271541, 0.0, 0.0, 0.0, 0.0]
GUROBI solution time: 0.8815760612487793




